# Objective value = 10
WA1n 0
WA1p 0
WA2n 0
WA2p 1
WB1n 0
WB1p 1
WB2n 0
WB2p 0
WC1n 0
WC1p 0
WC2n 0
WC2p 1
WD1n 0
WD1p 1
WD2n 0
WD2p 0
WT1n 0
WT1p 2
WT2n 0
WT2p 1
5 5
a 1
b 1
c 1
d 1
e 1
f 1
g 1
h 1
i 1
j 1
